Cost: 513
0-40-32-9-39-12-0
0-17-51-16-63-33-6-0
0-48-47-36-60-15-29-45-0
0-26-7-35-19-8-46-34-0
0-53-11-38-10-58-0
0-23-56-41-43-42-64-22-0
0-30-21-61-28-62-2-0
Cost: 513
0-23-56-41-43-42-64-22-0
0-26-7-35-19-8-46-34-0
0-30-21-61-28-62-2-0
0-6-33-63-16-51-17-0
0-45-29-15-60-36-47-48-0
0-12-39-9-32-40-0
0-58-10-38-11-53-0
Cost: 513
0-40-32-9-39-12-0
0-17-51-16-63-33-6-0
0-34-46-8-19-35-7-26-0
0-48-47-36-60-15-29-45-0
0-30-21-61-28-62-2-0
0-53-11-38-10-58-0
0-22-64-42-43-41-56-23-0
Cost: 513
0-26-7-35-19-8-46-34-0
0-6-33-63-16-51-17-0
0-30-21-61-28-62-2-0
0-22-64-42-43-41-56-23-0
0-12-39-9-32-40-0
0-48-47-36-60-15-29-45-0
0-53-11-38-10-58-0
Cost: 513
0-30-21-61-28-62-2-0
0-48-47-36-60-15-29-45-0
0-53-11-38-10-58-0
0-22-64-42-43-41-56-23-0
0-17-51-16-63-33-6-0
0-12-39-9-32-40-0
0-26-7-35-19-8-46-34-0
Cost: 513
0-2-62-28-61-21-30-0
0-6-33-63-16-51-17-0
0-22-64-42-43-41-56-23-0
0-53-11-38-10-58-0
0-45-29-15-60-36-47-48-0
0-34-46-8-19-35-7-26-0
0-40-32-9-39-12-0
Cost: 513
0-2-62-28-61-21-30-0
0-6-33-63-16-51-17-0
0-22-64-42-43-41-56-23-0
0-53-11-38-10-58-0
0-45-29-15-60-36-47-48-0
0-34-46-8-19-35-7-26-0
0-40-32-9-39-12-0
Cost: 513
0-2-62-28-61-21-30-0
0-6-33-63-16-51-17-0
0-22-64-42-43-41-56-23-0
0-53-11-38-10-58-0
0-45-29-15-60-36-47-48-0
0-34-46-8-19-35-7-26-0
0-40-32-9-39-12-0
Cost: 513
0-2-62-28-61-21-30-0
0-6-33-63-16-51-17-0
0-22-64-42-43-41-56-23-0
0-53-11-38-10-58-0
0-45-29-15-60-36-47-48-0
0-34-46-8-19-35-7-26-0
0-40-32-9-39-12-0
Cost: 513
0-17-51-16-63-33-6-0
0-26-7-35-19-8-46-34-0
0-30-21-61-28-62-2-0
0-12-39-9-32-40-0
0-48-47-36-60-15-29-45-0
0-53-11-38-10-58-0
0-22-64-42-43-41-56-23-0
Cost: 513
0-12-39-9-32-40-0
0-48-47-36-60-15-29-45-0
0-26-7-35-19-8-46-34-0
0-23-56-41-43-42-64-22-0
0-53-11-38-10-58-0
0-17-51-16-63-33-6-0
0-30-21-61-28-62-2-0
Cost: 513
0-12-39-9-32-40-0
0-48-47-36-60-15-29-45-0
0-26-7-35-19-8-46-34-0
0-23-56-41-43-42-64-22-0
0-53-11-38-10-58-0
0-17-51-16-63-33-6-0
0-30-21-61-28-62-2-0
Cost: 513
0-48-47-36-60-15-29-45-0
0-2-62-28-61-21-30-0
0-23-56-41-43-42-64-22-0
0-26-7-35-19-8-46-34-0
0-12-39-9-32-40-0
0-17-51-16-63-33-6-0
0-58-10-38-11-53-0
Cost: 513
0-34-46-8-19-35-7-26-0
0-40-32-9-39-12-0
0-2-62-28-61-21-30-0
0-17-51-16-63-33-6-0
0-48-47-36-60-15-29-45-0
0-58-10-38-11-53-0
0-23-56-41-43-42-64-22-0
Cost: 513
0-34-46-8-19-35-7-26-0
0-40-32-9-39-12-0
0-2-62-28-61-21-30-0
0-17-51-16-63-33-6-0
0-48-47-36-60-15-29-45-0
0-58-10-38-11-53-0
0-23-56-41-43-42-64-22-0
Cost: 513
0-45-29-15-60-36-47-48-0
0-6-33-63-16-51-17-0
0-30-21-61-28-62-2-0
0-53-11-38-10-58-0
0-34-46-8-19-35-7-26-0
0-40-32-9-39-12-0
0-22-64-42-43-41-56-23-0
Cost: 513
0-30-21-61-28-62-2-0
0-34-46-8-19-35-7-26-0
0-6-33-63-16-51-17-0
0-40-32-9-39-12-0
0-45-29-15-60-36-47-48-0
0-22-64-42-43-41-56-23-0
0-58-10-38-11-53-0
Cost: 513
0-22-64-42-43-41-56-23-0
0-30-21-61-28-62-2-0
0-58-10-38-11-53-0
0-17-51-16-63-33-6-0
0-26-7-35-19-8-46-34-0
0-45-29-15-60-36-47-48-0
0-40-32-9-39-12-0
Cost: 513
0-22-64-42-43-41-56-23-0
0-30-21-61-28-62-2-0
0-58-10-38-11-53-0
0-17-51-16-63-33-6-0
0-26-7-35-19-8-46-34-0
0-45-29-15-60-36-47-48-0
0-40-32-9-39-12-0
Cost: 513
0-2-62-28-61-21-30-0
0-48-47-36-60-15-29-45-0
0-53-11-38-10-58-0
0-22-64-42-43-41-56-23-0
0-26-7-35-19-8-46-34-0
0-12-39-9-32-40-0
0-17-51-16-63-33-6-0
Cost: 513
0-2-62-28-61-21-30-0
0-48-47-36-60-15-29-45-0
0-53-11-38-10-58-0
0-22-64-42-43-41-56-23-0
0-26-7-35-19-8-46-34-0
0-12-39-9-32-40-0
0-17-51-16-63-33-6-0
Cost: 513
0-34-46-8-19-35-7-26-0
0-45-29-15-60-36-47-48-0
0-40-32-9-39-12-0
0-58-10-38-11-53-0
0-23-56-41-43-42-64-22-0
0-2-62-28-61-21-30-0
0-17-51-16-63-33-6-0
Cost: 513
0-2-62-28-61-21-30-0
0-48-47-36-60-15-29-45-0
0-53-11-38-10-58-0
0-22-64-42-43-41-56-23-0
0-26-7-35-19-8-46-34-0
0-12-39-9-32-40-0
0-17-51-16-63-33-6-0
Cost: 513
0-30-21-61-28-62-2-0
0-34-46-8-19-35-7-26-0
0-6-33-63-16-51-17-0
0-40-32-9-39-12-0
0-45-29-15-60-36-47-48-0
0-22-64-42-43-41-56-23-0
0-58-10-38-11-53-0
Cost: 513
0-17-51-16-63-33-6-0
0-45-29-15-60-36-47-48-0
0-23-56-41-43-42-64-22-0
0-53-11-38-10-58-0
0-12-39-9-32-40-0
0-34-46-8-19-35-7-26-0
0-30-21-61-28-62-2-0
Cost: 513
0-58-10-38-11-53-0
0-34-46-8-19-35-7-26-0
0-40-32-9-39-12-0
0-48-47-36-60-15-29-45-0
0-17-51-16-63-33-6-0
0-2-62-28-61-21-30-0
0-23-56-41-43-42-64-22-0
Cost: 521
0-26-7-35-19-8-46-34-0
0-6-33-63-16-51-17-0
0-40-32-9-39-12-0
0-58-10-38-11-53-0
0-62-22-64-42-41-43-23-0
0-57-15-60-36-47-48-2-0
0-45-29-21-61-28-30-0
Cost: 525
0-26-7-53-35-8-46-34-0
0-40-44-32-9-39-0
0-17-51-16-63-33-6-0
0-62-22-64-42-41-56-23-0
0-11-38-10-58-12-0
0-15-20-60-36-47-48-2-0
0-45-29-21-61-28-30-0
Cost: 513
0-26-7-35-19-8-46-34-0
0-17-51-16-63-33-6-0
0-12-39-9-32-40-0
0-2-62-28-61-21-30-0
0-58-10-38-11-53-0
0-23-56-41-43-42-64-22-0
0-45-29-15-60-36-47-48-0
Cost: 513
0-6-33-63-16-51-17-0
0-45-29-15-60-36-47-48-0
0-2-62-28-61-21-30-0
0-34-46-8-19-35-7-26-0
0-23-56-41-43-42-64-22-0
0-40-32-9-39-12-0
0-58-10-38-11-53-0
